c turning on binary mode checking
c parsing input formula with 202048 variables and 780975 clauses
c finished parsing, read 2072821 bytes from proof file
c detected empty clause; start verification via backward checking
c 6798 of 780975 clauses in core                            
c 2173 of 86439 lemmas in core using 97607 resolution steps
c 0 RAT lemmas in core; 575 redundant literals in core lemmas
s VERIFIED
c verification time: 1.100 seconds
